c read Graph
c width = 2
c time = 102 ms
c width = 2
c time = 4448 ms
s td 28 3 30
b 1 1 2 17
b 2 2 3 18
b 3 3 4 19
b 4 4 5 20
b 5 5 6 21
b 6 6 7 22
b 7 7 8 23
b 8 8 9 24
b 9 9 10 25
b 10 10 11 26
b 11 11 12 27
b 12 12 13 28
b 13 13 14 29
b 14 14 15 30
b 15 14 29 30
b 16 13 28 29
b 17 12 27 28
b 18 11 26 27
b 19 10 25 26
b 20 9 24 25
b 21 8 23 24
b 22 7 22 23
b 23 6 21 22
b 24 5 20 21
b 25 4 19 20
b 26 3 18 19
b 27 2 17 18
b 28 1 16 17
1 28
1 27
2 27
2 26
3 26
3 25
4 25
4 24
5 24
5 23
6 23
6 22
7 22
7 21
8 21
8 20
9 20
9 19
10 19
10 18
11 18
11 17
12 17
12 16
13 16
13 15
14 15
